(set-logic HORN)

(declare-fun state ((Array Int Int) Int Int Int Int Bool Bool Bool) Bool)


(assert (forall ((|!{array.1}| (Array Int Int)) (|!{SIZE}| Int) (|!{i}| Int) (|!{largest}| Int) (|!{x}| Int) (|!pc[0]| Bool) (|!pc[1]| Bool) (|!pc[2]| Bool))
  (=>
   (let ((.def_43 (not |!pc[2]|)))
(let ((.def_41 (not |!pc[1]|)))
(let ((.def_40 (not |!pc[0]|)))
(let ((.def_42 (and .def_40 .def_41)))
(let ((.def_44 (and .def_42 .def_43)))
.def_44)))))
   (state |!{array.1}| |!{SIZE}| |!{i}| |!{largest}| |!{x}| |!pc[0]| |!pc[1]| |!pc[2]|))))

(assert (forall ((|!{array.1}| (Array Int Int)) (|!{SIZE}| Int) (|!{i}| Int) (|!{largest}| Int) (|!{x}| Int) (|!pc[0]| Bool) (|!pc[1]| Bool) (|!pc[2]| Bool)
                 (|!{array.1}.next| (Array Int Int)) (|!{SIZE}.next| Int) (|!{i}.next| Int) (|!{largest}.next| Int) (|!{x}.next| Int) (|!pc[0].next| Bool) (|!pc[1].next| Bool) (|!pc[2].next| Bool)
                 (|%{largest}#1| Int) (|%{x}#1| Int) (|%{array.1}#1| (Array Int Int)) (nd<0> Int) (|%{largest}#2| Int) (nd_char<0> Int))
  (=>
   (and (state |!{array.1}| |!{SIZE}| |!{i}| |!{largest}| |!{x}| |!pc[0]| |!pc[1]| |!pc[2]|)
(let ((.def_41 (not |!pc[1]|)))
(let ((.def_157 (and |!pc[0]| .def_41)))
(let ((.def_43 (not |!pc[2]|)))
(let ((.def_182 (and .def_43 .def_157)))
(let ((.def_65 (not |!pc[1].next|)))
(let ((.def_66 (and |!pc[0].next| .def_65)))
(let ((.def_159 (and |!pc[2].next| .def_66)))
(let ((.def_185 (and .def_159 .def_182)))
(let ((.def_169 (select |!{array.1}| 0)))
(let ((.def_178 (= |!{largest}.next| .def_169)))
(let ((.def_176 (= |!{i}.next| 1)))
(let ((.def_82 (= |!{SIZE}| |!{SIZE}.next|)))
(let ((.def_80 (= |!{array.1}| |!{array.1}.next|)))
(let ((.def_91 (and .def_80 .def_82)))
(let ((.def_177 (and .def_91 .def_176)))
(let ((.def_179 (and .def_177 .def_178)))
(let ((.def_88 (= |!{x}| |!{x}.next|)))
(let ((.def_180 (and .def_88 .def_179)))
(let ((.def_129 (<= |!{SIZE}| |!{i}|)))
(let ((.def_181 (and .def_129 .def_180)))
(let ((.def_186 (and .def_181 .def_185)))
(let ((.def_67 (not |!pc[2].next|)))
(let ((.def_68 (and .def_66 .def_67)))
(let ((.def_183 (and .def_68 .def_182)))
(let ((.def_167 (store |!{array.1}| |!{i}| nd_char<0>)))
(let ((.def_170 (= |!{array.1}.next| .def_167)))
(let ((.def_171 (and .def_82 .def_170)))
(let ((.def_145 (* (- 1) |!{i}.next|)))
(let ((.def_146 (+ |!{i}| .def_145)))
(let ((.def_147 (= .def_146 (- 1))))
(let ((.def_172 (and .def_147 .def_171)))
(let ((.def_86 (= |!{largest}| |!{largest}.next|)))
(let ((.def_173 (and .def_86 .def_172)))
(let ((.def_174 (and .def_88 .def_173)))
(let ((.def_130 (not .def_129)))
(let ((.def_175 (and .def_130 .def_174)))
(let ((.def_184 (and .def_175 .def_183)))
(let ((.def_187 (or .def_184 .def_186)))
(let ((.def_158 (and |!pc[2]| .def_157)))
(let ((.def_112 (not |!pc[0].next|)))
(let ((.def_113 (and |!pc[1].next| .def_112)))
(let ((.def_114 (and .def_67 .def_113)))
(let ((.def_162 (and .def_114 .def_158)))
(let ((.def_154 (= |!{x}.next| 0)))
(let ((.def_84 (= |!{i}| |!{i}.next|)))
(let ((.def_92 (and .def_84 .def_91)))
(let ((.def_93 (and .def_86 .def_92)))
(let ((.def_155 (and .def_93 .def_154)))
(let ((.def_156 (and .def_129 .def_155)))
(let ((.def_163 (and .def_156 .def_162)))
(let ((.def_160 (and .def_158 .def_159)))
(let ((.def_149 (= |!{largest}.next| |%{largest}#2|)))
(let ((.def_148 (and .def_91 .def_147)))
(let ((.def_150 (and .def_148 .def_149)))
(let ((.def_151 (and .def_88 .def_150)))
(let ((.def_131 (select |!{array.1}| |!{i}|)))
(let ((.def_139 (= .def_131 |%{largest}#2|)))
(let ((.def_132 (<= .def_131 |!{largest}|)))
(let ((.def_133 (not .def_132)))
(let ((.def_141 (and .def_133 .def_139)))
(let ((.def_138 (= |!{largest}| |%{largest}#2|)))
(let ((.def_140 (and .def_132 .def_138)))
(let ((.def_142 (or .def_140 .def_141)))
(let ((.def_152 (and .def_142 .def_151)))
(let ((.def_153 (and .def_130 .def_152)))
(let ((.def_161 (and .def_153 .def_160)))
(let ((.def_164 (or .def_161 .def_163)))
(let ((.def_124 (and |!pc[0]| |!pc[1]|)))
(let ((.def_125 (and .def_43 .def_124)))
(let ((.def_126 (and .def_114 .def_125)))
(let ((.def_95 (* (- 1) |!{x}.next|)))
(let ((.def_96 (+ |!{x}| .def_95)))
(let ((.def_97 (= .def_96 (- 1))))
(let ((.def_98 (and .def_93 .def_97)))
(let ((.def_127 (and .def_98 .def_126)))
(let ((.def_118 (and .def_65 .def_112)))
(let ((.def_119 (and |!pc[2].next| .def_118)))
(let ((.def_40 (not |!pc[0]|)))
(let ((.def_106 (and |!pc[1]| .def_40)))
(let ((.def_107 (and .def_43 .def_106)))
(let ((.def_120 (and .def_107 .def_119)))
(let ((.def_71 (<= |!{SIZE}| |!{x}|)))
(let ((.def_101 (and .def_71 .def_80)))
(let ((.def_102 (and .def_82 .def_101)))
(let ((.def_103 (and .def_84 .def_102)))
(let ((.def_104 (and .def_86 .def_103)))
(let ((.def_105 (and .def_88 .def_104)))
(let ((.def_121 (and .def_105 .def_120)))
(let ((.def_115 (and .def_107 .def_114)))
(let ((.def_73 (select |!{array.1}| |!{x}|)))
(let ((.def_74 (<= .def_73 |!{largest}|)))
(let ((.def_99 (and .def_74 .def_98)))
(let ((.def_72 (not .def_71)))
(let ((.def_100 (and .def_72 .def_99)))
(let ((.def_116 (and .def_100 .def_115)))
(let ((.def_108 (and |!pc[0].next| |!pc[1].next|)))
(let ((.def_109 (and .def_67 .def_108)))
(let ((.def_110 (and .def_107 .def_109)))
(let ((.def_75 (not .def_74)))
(let ((.def_81 (and .def_75 .def_80)))
(let ((.def_83 (and .def_81 .def_82)))
(let ((.def_85 (and .def_83 .def_84)))
(let ((.def_87 (and .def_85 .def_86)))
(let ((.def_89 (and .def_87 .def_88)))
(let ((.def_90 (and .def_72 .def_89)))
(let ((.def_111 (and .def_90 .def_110)))
(let ((.def_117 (or .def_111 .def_116)))
(let ((.def_122 (or .def_117 .def_121)))
(let ((.def_42 (and .def_40 .def_41)))
(let ((.def_44 (and .def_42 .def_43)))
(let ((.def_69 (and .def_44 .def_68)))
(let ((.def_62 (= |!{x}.next| |%{x}#1|)))
(let ((.def_60 (= |!{largest}.next| |%{largest}#1|)))
(let ((.def_58 (= |!{i}.next| 0)))
(let ((.def_56 (= |!{SIZE}.next| nd<0>)))
(let ((.def_55 (= |!{array.1}.next| |%{array.1}#1|)))
(let ((.def_57 (and .def_55 .def_56)))
(let ((.def_59 (and .def_57 .def_58)))
(let ((.def_61 (and .def_59 .def_60)))
(let ((.def_63 (and .def_61 .def_62)))
(let ((.def_53 (<= nd<0> 0)))
(let ((.def_54 (not .def_53)))
(let ((.def_64 (and .def_54 .def_63)))
(let ((.def_70 (and .def_64 .def_69)))
(let ((.def_123 (or .def_70 .def_122)))
(let ((.def_128 (or .def_123 .def_127)))
(let ((.def_165 (or .def_128 .def_164)))
(let ((.def_188 (or .def_165 .def_187)))
.def_188))))))))))))))))))))))))))))))))))))))))))))))))))))))))))))))))))))))))))))))))))))))))))))))))))))))))))))))))))))))))))))))))
   ) (state |!{array.1}.next| |!{SIZE}.next| |!{i}.next| |!{largest}.next| |!{x}.next| |!pc[0].next| |!pc[1].next| |!pc[2].next|))))

(assert (forall ((|!{array.1}| (Array Int Int)) (|!{SIZE}| Int) (|!{i}| Int) (|!{largest}| Int) (|!{x}| Int) (|!pc[0]| Bool) (|!pc[1]| Bool) (|!pc[2]| Bool))
  (=> (state |!{array.1}| |!{SIZE}| |!{i}| |!{largest}| |!{x}| |!pc[0]| |!pc[1]| |!pc[2]|)
(let ((.def_124 (and |!pc[0]| |!pc[1]|)))
(let ((.def_43 (not |!pc[2]|)))
(let ((.def_125 (and .def_43 .def_124)))
(let ((.def_189 (not .def_125)))
.def_189))))
)))

(check-sat)
